c Random generated cnf formula, satisfiable: true
p cnf 10 50
-6 10 1 0
5 -2 10 0
-7 -4 5 0
7 3 8 0
5 -9 2 0
5 9 -8 0
-10 -4 2 0
1 -8 9 0
-10 9 6 0
-3 -2 -9 0
2 -7 -6 0
6 -2 1 0
1 -7 -3 0
3 4 9 0
10 -4 -2 0
7 -2 -6 0
2 -10 7 0
9 -10 4 0
3 -9 4 0
2 4 -1 0
-4 3 -5 0
-7 -9 2 0
9 -6 -8 0
2 -8 -3 0
8 1 3 0
-4 10 1 0
-9 -4 -10 0
-8 10 2 0
-3 -10 1 0
-3 -9 -8 0
1 -9 -4 0
-9 8 3 0
-5 2 -4 0
8 -3 -9 0
1 -9 -6 0
-10 7 9 0
-5 1 -9 0
7 -9 1 0
4 5 2 0
-5 3 4 0
-7 -6 -3 0
-7 4 -2 0
2 -4 -9 0
6 5 3 0
-1 3 -9 0
1 -9 -5 0
1 -3 -5 0
9 6 -10 0
10 8 -4 0
5 -6 -4 0
